Gurobi Optimizer version 9.1.0 build v9.1.0rc0 (linux64)
Thread count: 8 physical cores, 16 logical processors, using up to 16 threads
Optimize a model with 383414 rows, 360720 columns and 2101770 nonzeros
Model fingerprint: 0xe46a76b9
Variable types: 0 continuous, 360720 integer (360720 binary)
Coefficient statistics:
  Matrix range     [1e+00, 1e+00]
  Objective range  [1e+01, 1e+05]
  Bounds range     [1e+00, 1e+00]
  RHS range        [1e+00, 1e+03]
Presolve removed 10030 rows and 30 columns (presolve time = 7s) ...
Presolve added 0 rows and 9970 columns
Presolve removed 30 rows and 0 columns
Presolve time: 8.51s
Presolved: 383384 rows, 370690 columns, 1531710 nonzeros
Variable types: 0 continuous, 370690 integer (370690 binary)
Found heuristic solution: objective 1161175.0000

Concurrent LP optimizer: primal simplex, dual simplex, and barrier
Showing barrier log only...

Root barrier log...

Ordering time: 0.14s

Barrier statistics:
 Dense cols : 360
 AA' NZ     : 1.188e+06
 Factor NZ  : 7.430e+06 (roughly 400 MBytes of memory)
 Factor Ops : 2.001e+09 (less than 1 second per iteration)
 Threads    : 6

                  Objective                Residual
Iter       Primal          Dual         Primal    Dual     Compl     Time
   0   5.44344621e+08 -7.79015915e+08  4.24e+02 2.93e+01  3.39e+04    19s
   1   3.93496841e+07 -9.15589414e+08  5.07e+01 1.85e+04  3.53e+03    19s
   2   3.74691265e+06 -5.25017057e+08  3.25e+00 1.97e+03  6.09e+02    20s
   3   1.36308705e+06 -3.85621709e+08  5.93e-02 1.38e+03  3.52e+02    21s
   4   1.35562907e+06 -8.74853841e+07  4.95e-02 3.09e+02  8.07e+01    22s
   5   1.33888651e+06 -8.07421586e+06  3.31e-02 3.15e+01  8.52e+00    23s
   6   1.27473328e+06 -1.52122257e+06  1.72e-02 9.31e+00  2.52e+00    23s
   7   1.20185680e+06  2.50366233e+05  1.07e-02 2.26e+00  8.54e-01    25s
   8   1.18171328e+06  5.78012510e+05  9.48e-03 1.17e+00  5.40e-01    26s
   9   1.15194670e+06  7.59004124e+05  7.87e-03 6.48e-01  3.51e-01    27s
  10   1.13747549e+06  8.40034162e+05  7.17e-03 4.13e-01  2.65e-01    27s
  11   1.11414426e+06  8.89825271e+05  6.06e-03 2.82e-01  1.99e-01    29s
  12   1.09648319e+06  9.22204049e+05  5.27e-03 1.97e-01  1.55e-01    30s
  13   1.08385011e+06  9.42474551e+05  4.69e-03 1.24e-01  1.25e-01    32s
  14   1.07200575e+06  9.53230792e+05  4.20e-03 8.66e-02  1.05e-01    33s
  15   1.06612410e+06  9.57119836e+05  3.93e-03 8.04e-02  9.63e-02    34s
  16   1.05063707e+06  9.64420603e+05  3.31e-03 6.05e-02  7.61e-02    35s
  17   1.03159751e+06  9.68275979e+05  2.48e-03 4.44e-02  5.59e-02    36s
  18   1.02352510e+06  9.71263985e+05  2.14e-03 3.36e-02  4.61e-02    37s
  19   1.01463641e+06  9.73455740e+05  1.76e-03 2.51e-02  3.63e-02    38s
  20   1.01091339e+06  9.75017512e+05  1.57e-03 1.95e-02  3.16e-02    39s
  21   1.00652443e+06  9.75799210e+05  1.37e-03 1.93e-02  2.70e-02    40s
  22   1.00194985e+06  9.76610404e+05  1.14e-03 2.97e-02  2.23e-02    41s
  23   9.96853762e+05  9.77133260e+05  9.08e-04 2.61e-02  1.73e-02    42s
  24   9.93960908e+05  9.78303456e+05  7.67e-04 2.23e-02  1.37e-02    43s
  25   9.91905558e+05  9.78668054e+05  6.61e-04 1.67e-02  1.16e-02    44s
  26   9.88740193e+05  9.78869428e+05  5.00e-04 1.69e-02  8.66e-03    44s
  27   9.87597121e+05  9.79255991e+05  4.35e-04 1.38e-02  7.31e-03    45s
  28   9.86854425e+05  9.79535337e+05  3.93e-04 1.15e-02  6.41e-03    46s
  29   9.85642633e+05  9.79654227e+05  3.30e-04 9.73e-03  5.24e-03    47s
  30   9.85065828e+05  9.79769437e+05  2.95e-04 8.65e-03  4.63e-03    48s
  31   9.84702218e+05  9.79964302e+05  2.74e-04 6.89e-03  4.14e-03    49s
  32   9.83811038e+05  9.80014878e+05  2.22e-04 6.12e-03  3.32e-03    50s
  33   9.83557847e+05  9.80130096e+05  2.07e-04 4.66e-03  2.99e-03    51s
  34   9.83164534e+05  9.80179025e+05  1.81e-04 3.99e-03  2.60e-03    51s
  35   9.82631184e+05  9.80205328e+05  1.46e-04 3.63e-03  2.12e-03    52s
  36   9.82367792e+05  9.80234225e+05  1.29e-04 3.25e-03  1.86e-03    53s
  37   9.82150438e+05  9.80272092e+05  1.14e-04 2.75e-03  1.64e-03    54s
  38   9.81889549e+05  9.80301443e+05  9.82e-05 2.37e-03  1.38e-03    55s
  39   9.81819869e+05  9.80351182e+05  9.41e-05 1.82e-03  1.28e-03    56s
  40   9.81512097e+05  9.80361430e+05  7.44e-05 1.68e-03  1.00e-03    57s
  41   9.81371787e+05  9.80387656e+05  6.48e-05 1.37e-03  8.56e-04    57s
  42   9.81237060e+05  9.80418395e+05  5.50e-05 1.04e-03  7.12e-04    58s
  43   9.81133236e+05  9.80426244e+05  4.77e-05 9.41e-04  6.15e-04    59s
  44   9.81065224e+05  9.80440304e+05  4.31e-05 7.78e-04  5.43e-04    60s
  45   9.81012150e+05  9.80452329e+05  3.94e-05 6.61e-04  4.86e-04    61s
  46   9.80995094e+05  9.80458441e+05  3.82e-05 5.88e-04  4.66e-04    62s
  47   9.80904170e+05  9.80464904e+05  3.19e-05 5.08e-04  3.81e-04    63s
  48   9.80877431e+05  9.80471698e+05  2.99e-05 4.40e-04  3.52e-04    64s
  49   9.80854572e+05  9.80474393e+05  2.82e-05 4.12e-04  3.29e-04    65s
  50   9.80820232e+05  9.80477689e+05  2.58e-05 3.81e-04  2.97e-04    65s
  51   9.80773051e+05  9.80488380e+05  2.24e-05 2.72e-04  2.46e-04    66s
  52   9.80753106e+05  9.80491150e+05  2.09e-05 2.40e-04  2.26e-04    67s
  53   9.80722714e+05  9.80496219e+05  1.83e-05 1.82e-04  1.96e-04    68s
  54   9.80691485e+05  9.80498295e+05  1.56e-05 1.53e-04  1.67e-04    69s
  55   9.80655427e+05  9.80499484e+05  1.30e-05 1.36e-04  1.34e-04    70s
  56   9.80632309e+05  9.80501276e+05  1.11e-05 1.18e-04  1.13e-04    71s
  57   9.80626225e+05  9.80502300e+05  1.06e-05 1.07e-04  1.07e-04    72s
  58   9.80617216e+05  9.80504229e+05  9.86e-06 8.74e-05  9.72e-05    72s
  59   9.80603499e+05  9.80505516e+05  8.69e-06 7.19e-05  8.42e-05    73s
  60   9.80591719e+05  9.80507156e+05  7.58e-06 5.51e-05  7.27e-05    74s
  61   9.80579508e+05  9.80507841e+05  6.57e-06 4.63e-05  6.15e-05    75s
  62   9.80569783e+05  9.80508506e+05  5.75e-06 3.83e-05  5.25e-05    76s
  63   9.80561985e+05  9.80508948e+05  5.07e-06 3.32e-05  4.54e-05    77s
  64   9.80551636e+05  9.80509634e+05  4.01e-06 2.55e-05  3.60e-05    77s
  65   9.80545994e+05  9.80509957e+05  3.50e-06 2.21e-05  3.08e-05    78s
  66   9.80541019e+05  9.80510738e+05  3.00e-06 1.61e-05  2.59e-05    79s
  67   9.80532405e+05  9.80511247e+05  2.13e-06 1.10e-05  1.81e-05    80s
  68   9.80531012e+05  9.80511381e+05  1.97e-06 9.78e-06  1.68e-05    81s
  69   9.80529653e+05  9.80511512e+05  1.86e-06 8.60e-06  1.55e-05    82s
  70   9.80528955e+05  9.80511679e+05  1.79e-06 7.45e-06  1.47e-05    83s
  71   9.80526949e+05  9.80511887e+05  1.57e-06 6.00e-06  1.28e-05    83s
  72   9.80525209e+05  9.80512017e+05  1.38e-06 4.80e-06  1.12e-05    84s
  73   9.80522175e+05  9.80512055e+05  1.04e-06 3.96e-06  8.64e-06    85s
  74   9.80520272e+05  9.80512196e+05  8.53e-07 2.69e-06  6.88e-06    86s
  75   9.80518387e+05  9.80512283e+05  6.37e-07 2.19e-06  5.20e-06    87s
  76   9.80516818e+05  9.80512320e+05  4.76e-07 2.02e-06  3.83e-06    88s
  77   9.80514296e+05  9.80512519e+05  1.70e-07 7.38e-07  1.52e-06    89s
  78   9.80513933e+05  9.80512686e+05  1.33e-07 7.73e-08  1.06e-06    90s
  79   9.80513750e+05  9.80512719e+05  1.13e-07 8.94e-07  8.77e-07    90s
  80   9.80513414e+05  9.80512721e+05  7.41e-08 5.84e-07  5.90e-07    91s
  81   9.80512873e+05  9.80512730e+05  1.26e-08 4.57e-07  1.23e-07    92s
  82   9.80512811e+05  9.80512742e+05  5.53e-09 2.75e-07  5.92e-08    92s
  83   9.80512773e+05  9.80512757e+05  1.13e-09 3.16e-07  1.37e-08    93s
  84   9.80512772e+05  9.80512758e+05  7.86e-09 3.38e-07  1.25e-08    94s
  85   9.80512772e+05  9.80512758e+05  9.06e-09 3.38e-07  1.25e-08    95s
  86   9.80512772e+05  9.80512758e+05  9.06e-09 3.40e-07  1.25e-08    95s

Barrier solved model in 86 iterations and 95.47 seconds
Optimal objective 9.80512772e+05


Root crossover log...

  101640 DPushes remaining with DInf 0.0000000e+00                96s
       0 DPushes remaining with DInf 0.0000000e+00                98s

    2744 PPushes remaining with PInf 0.0000000e+00                98s
       0 PPushes remaining with PInf 0.0000000e+00                99s

  Push phase complete: Pinf 0.0000000e+00, Dinf 5.7041660e-10     99s


Root simplex log...

Iteration    Objective       Primal Inf.    Dual Inf.      Time
   16189    9.8051276e+05   0.000000e+00   0.000000e+00     99s
   16189    9.8051276e+05   0.000000e+00   0.000000e+00    100s

Solved with barrier

Root relaxation: objective 9.805128e+05, 16189 iterations, 84.72 seconds
Total elapsed time = 103.38s
Total elapsed time = 105.48s

    Nodes    |    Current Node    |     Objective Bounds      |     Work
 Expl Unexpl |  Obj  Depth IntInf | Incumbent    BestBd   Gap | It/Node Time

     0     0 980512.762    0 29702 1161175.00 980512.762  15.6%     -  110s
H    0     0                    1004640.0000 980512.762  2.40%     -  115s
H    0     0                    1004231.0000 980512.762  2.36%     -  119s
H    0     0                    1004033.0000 980512.762  2.34%     -  125s
     0     0 980512.762    0 29702 1004033.00 980512.762  2.34%     -  279s

Explored 1 nodes (25806 simplex iterations) in 300.18 seconds
Thread count was 16 (of 16 available processors)

Solution count 4: 1.00403e+06 1.00423e+06 1.00464e+06 1.16118e+06 

Time limit reached
Best objective 1.004033000000e+06, best bound 9.805127620959e+05, gap 2.3426%

User-callback calls 26032, time in user-callback 0.48 sec
['/opt/local/stow/gurobi910/linux64/lib/libgurobi91.so']
Result: runtime=280.05sec; objective=1004033; gap=0.0234%
Solution written to /autofs/unityaccount/cremi/mdeboute/Bureau/multi-period-flp/solution//instMulti_I30_J1000_T12_0_result.txt
